dis_win_max =  8
dis_win_min = -23
dis_froz_max =  5
dis_froz_min = -10
dis_num_iter = 8000
num_iter = 500
num_print_cycles = 10
write_xyz = true
write_hr = true
bands_plot = true
iprint = 3
guiding_centres = T

begin kpoint_path
G 0.000000  0.00000 0.000 X 0.5000 0.0000 0.0000
X 0.5000 0.0000 0.0000 M 0.5000 0.5000 0.0000
M 0.5000 0.5000 0.0000 G 0.000000  0.00000 0.000
G 0.000000  0.00000 0.000 M2 -0.5000 0.5000 0.0000
end kpoint_path

begin projections
Cr:d
C:p
C:s
N:p
H:s
end projections
# This part was generated automatically by VASP
num_bands = 288
num_wann = 218
begin unit_cell_cart
    13.3021700     0.0000000     0.0000000
     0.0000000    13.3021700     0.0000000
     0.0000000     0.0000000    19.3220277
end unit_cell_cart

begin atoms_cart
Cr       6.6525287     0.0001652     7.7688467
Cr      13.3020752     6.6521106     7.7672812
C        2.7149739     6.6769994     6.5709438
C        1.7409202     0.7655410     5.4393545
C        2.8030611     0.8376628     6.3718996
C        2.9099117     1.9132199     7.3335397
C        1.9102853     2.9224914     7.3306641
C        0.8358857     2.8188121     6.3549820
C        0.7650895     1.7512794     5.4302539
C        3.9375140     0.0247383     6.5690131
C        0.0275544     3.9541713     6.5448832
C        4.1037877     1.6869705     8.0372710
C        1.6841308     4.1129943     8.0310991
C        4.9105554     7.4190072     5.4420268
C        3.8504367     7.4887431     6.3767926
C        3.7446471     8.5622704     7.3410216
C        4.7448646     9.5708947     7.3395331
C        5.8177634     9.4689108     6.3620876
C        5.8865253     8.4044354     5.4339414
C        6.6255967    10.6044399     6.5512474
C        2.5493200     8.3365190     8.0425541
C        4.9714028    10.7613226     8.0403275
C        7.4300575     4.8863828     5.4133973
C        7.4929565     3.8264565     6.3474125
C        8.5611590     3.7288612     7.3307717
C        9.5600033     4.7387099     7.3345861
C        9.4596464     5.8077280     6.3651005
C        8.4057528     5.8719414     5.4226590
C        6.6841253     2.6920571     6.5380910
C       10.5924043     6.6220040     6.5639944
C        8.3322328     2.5408618     8.0347050
C       10.7499018     4.9694284     8.0441157
C       12.5055805    11.5200576     5.3776930
C       12.4496126    10.4658327     6.3192787
C       11.3874781    10.3749605     7.3097239
C       10.3885950    11.3845236     7.3135033
C       10.4822689    12.4482631     6.3376289
C       11.5301181    12.5058312     5.3873774
C       13.2617576     9.3346994     6.5160876
C        9.3528482    13.2657237     6.5433023
C       11.6225335     9.1939608     8.0233924
C        9.2053949    11.6204123     8.0324236
N        4.7215825     0.5467065     7.5678546
N        0.5473360     4.7324563     7.5487064
N        1.9304648     7.1985069     7.5699140
N        6.1063597    11.3820796     7.5561463
N        7.1992447     1.9186980     7.5485059
N       11.3708321     6.1058695     7.5707232
N       12.7540827     8.5696498     7.5367064
N        8.5826288    12.7559075     7.5595716
H        4.9450171     6.6012304     4.7218647
H        2.4220062     5.7761208     6.0403669
H        6.6241656     4.9137222     4.6795539
H        5.7878290     2.3938047     6.0032160
H        1.7033338    13.2468219     4.7227851
H       13.2536807     1.7161070     4.7052717
H        4.2291641    12.4237714     6.0414057
H       12.4299827     4.2488504     6.0137616
H        4.5632323     2.2793415     8.8224593
H        2.2675004     4.5713813     8.8229513
H        2.0891383     8.9286054     8.8275565
H        4.3884398    11.2193864     8.8326943
H        8.3765486     6.6853018     4.6972177
H        8.9125582     2.0852969     8.8304575
H       11.2046212     4.3818030     8.8356221
H        6.6977420     8.3727326     4.7062523
H        7.5234536    10.9005105     6.0178391
H       10.8874546     7.5214634     6.0320695
H        0.0042388    11.5433449     4.6379825
H       11.5551885     0.0123595     4.6563409
H        0.8548556     9.0339076     5.9806795
H        9.0554382     0.8627786     6.0120220
H       11.0480502     8.7454403     8.8273182
H        8.7570088    11.0373482     8.8308696


end atoms_cart
mp_grid =     2     2     1
begin kpoints
    0.000000000000      0.000000000000      0.000000000000
    0.500000000000      0.000000000000      0.000000000000
    0.000000000000      0.500000000000      0.000000000000
    0.500000000000      0.500000000000      0.000000000000
end kpoints