dis_win_min       = -20.00
dis_win_max       = 70.00
dis_froz_min      = -20.00
dis_froz_max      =  15.00
dis_num_iter      =  500

num_iter          = 200
dis_mix_ratio = 1.0

  begin projections
  Fe:sp3d2;dxy;dxz;dyz
  end projections
#write_hr=.true.
#write_tb = .true.
#write_xyz=.true.
#fermi_energy = 5.4021
#kpath = true
#kpath_task = bands+curv
#kpath_bands_colour = none
#kpath_num_points = 1000
begin kpoint_path
G 0.0000 0.0000 0.0000   H 0.500 -0.5000 -0.5000
H 0.500 -0.5000 -0.5000  P 0.7500 0.2500 -0.2500
P 0.7500 0.2500 -0.2500  N 0.5000 0.0000 -0.5000
N 0.5000 0.0000 -0.5000  G 0.0000 0.0000 0.000
G 0.0000 0.0000 0.000    H 0.5 0.5 0.5
H 0.5 0.5 0.5            N 0.5 0.0 0.0
N 0.5 0.0 0.0            G 0.0 0.0 0.0
G 0.0 0.0 0.0            P 0.75 0.25 -0.25
P 0.75 0.25 -0.25        N 0.5 0.0 0.0
end kpoint_path
fermi_energy = 5.4021
kslice = true
kslice_task = curv+fermi_lines
kslice_corner = 0.0 0.0 0.0
kslice_b1 = 0.5 -0.5 -0.5
kslice_b2 = 0.5 0.5 0.5
kslice_2dkmesh = 200 200

guiding_centres=.true.
# This part was generated automatically by VASP
num_bands = 40
num_wann = 18
spinors = .true.
spn_formatted = .true.
begin unit_cell_cart
     1.4349963     1.4349963     1.4349963
    -1.4349963     1.4349963     1.4349963
    -1.4349963    -1.4349963     1.4349963
end unit_cell_cart
begin atoms_cart
Fe       0.0000000     0.0000000     0.0000000
end atoms_cart
mp_grid =    16    16    16
begin kpoints
      0.000000000000      0.000000000000      0.000000000000
      0.062500000000      0.000000000000      0.000000000000
      0.125000000000      0.000000000000      0.000000000000
      0.187500000000      0.000000000000      0.000000000000
      0.250000000000      0.000000000000      0.000000000000
      0.312500000000      0.000000000000      0.000000000000
      0.375000000000      0.000000000000      0.000000000000
      0.437500000000      0.000000000000      0.000000000000
      0.500000000000      0.000000000000      0.000000000000
     -0.437500000000      0.000000000000      0.000000000000
     -0.375000000000      0.000000000000      0.000000000000
     -0.312500000000      0.000000000000      0.000000000000
     -0.250000000000      0.000000000000      0.000000000000
     -0.187500000000      0.000000000000      0.000000000000
     -0.125000000000      0.000000000000      0.000000000000
     -0.062500000000      0.000000000000      0.000000000000
      0.000000000000      0.062500000000      0.000000000000
      0.062500000000      0.062500000000      0.000000000000
      0.125000000000      0.062500000000      0.000000000000
      0.187500000000      0.062500000000      0.000000000000
      0.250000000000      0.062500000000      0.000000000000
      0.312500000000      0.062500000000      0.000000000000
      0.375000000000      0.062500000000      0.000000000000
      0.437500000000      0.062500000000      0.000000000000
      0.500000000000      0.062500000000      0.000000000000
     -0.437500000000      0.062500000000      0.000000000000
     -0.375000000000      0.062500000000      0.000000000000
     -0.312500000000      0.062500000000      0.000000000000
     -0.250000000000      0.062500000000      0.000000000000
     -0.187500000000      0.062500000000      0.000000000000
     -0.125000000000      0.062500000000      0.000000000000
     -0.062500000000      0.062500000000      0.000000000000
      0.000000000000      0.125000000000      0.000000000000
      0.062500000000      0.125000000000      0.000000000000
      0.125000000000      0.125000000000      0.000000000000
      0.187500000000      0.125000000000      0.000000000000
      0.250000000000      0.125000000000      0.000000000000
      0.312500000000      0.125000000000      0.000000000000
      0.375000000000      0.125000000000      0.000000000000
      0.437500000000      0.125000000000      0.000000000000
      0.500000000000      0.125000000000      0.000000000000
     -0.437500000000      0.125000000000      0.000000000000
     -0.375000000000      0.125000000000      0.000000000000
     -0.312500000000      0.125000000000      0.000000000000
     -0.250000000000      0.125000000000      0.000000000000
     -0.187500000000      0.125000000000      0.000000000000
     -0.125000000000      0.125000000000      0.000000000000
     -0.062500000000      0.125000000000      0.000000000000
      0.000000000000      0.187500000000      0.000000000000
      0.062500000000      0.187500000000      0.000000000000
      0.125000000000      0.187500000000      0.000000000000
      0.187500000000      0.187500000000      0.000000000000
      0.250000000000      0.187500000000      0.000000000000
      0.312500000000      0.187500000000      0.000000000000
      0.375000000000      0.187500000000      0.000000000000
      0.437500000000      0.187500000000      0.000000000000
      0.500000000000      0.187500000000      0.000000000000
     -0.437500000000      0.187500000000      0.000000000000
     -0.375000000000      0.187500000000      0.000000000000
     -0.312500000000      0.187500000000      0.000000000000
     -0.250000000000      0.187500000000      0.000000000000
     -0.187500000000      0.187500000000      0.000000000000
     -0.125000000000      0.187500000000      0.000000000000
     -0.062500000000      0.187500000000      0.000000000000
      0.000000000000      0.250000000000      0.000000000000
      0.062500000000      0.250000000000      0.000000000000
      0.125000000000      0.250000000000      0.000000000000
      0.187500000000      0.250000000000      0.000000000000
      0.250000000000      0.250000000000      0.000000000000
      0.312500000000      0.250000000000      0.000000000000
      0.375000000000      0.250000000000      0.000000000000
      0.437500000000      0.250000000000      0.000000000000
      0.500000000000      0.250000000000      0.000000000000
     -0.437500000000      0.250000000000      0.000000000000
     -0.375000000000      0.250000000000      0.000000000000
     -0.312500000000      0.250000000000      0.000000000000
     -0.250000000000      0.250000000000      0.000000000000
     -0.187500000000      0.250000000000      0.000000000000
     -0.125000000000      0.250000000000      0.000000000000
     -0.062500000000      0.250000000000      0.000000000000
      0.000000000000      0.312500000000      0.000000000000
      0.062500000000      0.312500000000      0.000000000000
      0.125000000000      0.312500000000      0.000000000000
      0.187500000000      0.312500000000      0.000000000000
      0.250000000000      0.312500000000      0.000000000000
      0.312500000000      0.312500000000      0.000000000000
      0.375000000000      0.312500000000      0.000000000000
      0.437500000000      0.312500000000      0.000000000000
      0.500000000000      0.312500000000      0.000000000000
     -0.437500000000      0.312500000000      0.000000000000
     -0.375000000000      0.312500000000      0.000000000000
     -0.312500000000      0.312500000000      0.000000000000
     -0.250000000000      0.312500000000      0.000000000000
     -0.187500000000      0.312500000000      0.000000000000
     -0.125000000000      0.312500000000      0.000000000000
     -0.062500000000      0.312500000000      0.000000000000
      0.000000000000      0.375000000000      0.000000000000
      0.062500000000      0.375000000000      0.000000000000
      0.125000000000      0.375000000000      0.000000000000
      0.187500000000      0.375000000000      0.000000000000
      0.250000000000      0.375000000000      0.000000000000
      0.312500000000      0.375000000000      0.000000000000
      0.375000000000      0.375000000000      0.000000000000
      0.437500000000      0.375000000000      0.000000000000
      0.500000000000      0.375000000000      0.000000000000
     -0.437500000000      0.375000000000      0.000000000000
     -0.375000000000      0.375000000000      0.000000000000
     -0.312500000000      0.375000000000      0.000000000000
     -0.250000000000      0.375000000000      0.000000000000
     -0.187500000000      0.375000000000      0.000000000000
     -0.125000000000      0.375000000000      0.000000000000
     -0.062500000000      0.375000000000      0.000000000000
      0.000000000000      0.437500000000      0.000000000000
      0.062500000000      0.437500000000      0.000000000000
      0.125000000000      0.437500000000      0.000000000000
      0.187500000000      0.437500000000      0.000000000000
      0.250000000000      0.437500000000      0.000000000000
      0.312500000000      0.437500000000      0.000000000000
      0.375000000000      0.437500000000      0.000000000000
      0.437500000000      0.437500000000      0.000000000000
      0.500000000000      0.437500000000      0.000000000000
     -0.437500000000      0.437500000000      0.000000000000
     -0.375000000000      0.437500000000      0.000000000000
     -0.312500000000      0.437500000000      0.000000000000
     -0.250000000000      0.437500000000      0.000000000000
     -0.187500000000      0.437500000000      0.000000000000
     -0.125000000000      0.437500000000      0.000000000000
     -0.062500000000      0.437500000000      0.000000000000
      0.000000000000      0.500000000000      0.000000000000
      0.062500000000      0.500000000000      0.000000000000
      0.125000000000      0.500000000000      0.000000000000
      0.187500000000      0.500000000000      0.000000000000
      0.250000000000      0.500000000000      0.000000000000
      0.312500000000      0.500000000000      0.000000000000
      0.375000000000      0.500000000000      0.000000000000
      0.437500000000      0.500000000000      0.000000000000
      0.500000000000      0.500000000000      0.000000000000
     -0.437500000000      0.500000000000      0.000000000000
     -0.375000000000      0.500000000000      0.000000000000
     -0.312500000000      0.500000000000      0.000000000000
     -0.250000000000      0.500000000000      0.000000000000
     -0.187500000000      0.500000000000      0.000000000000
     -0.125000000000      0.500000000000      0.000000000000
     -0.062500000000      0.500000000000      0.000000000000
      0.000000000000     -0.437500000000      0.000000000000
      0.062500000000     -0.437500000000      0.000000000000
      0.125000000000     -0.437500000000      0.000000000000
      0.187500000000     -0.437500000000      0.000000000000
      0.250000000000     -0.437500000000      0.000000000000
      0.312500000000     -0.437500000000      0.000000000000
      0.375000000000     -0.437500000000      0.000000000000
      0.437500000000     -0.437500000000      0.000000000000
      0.500000000000     -0.437500000000      0.000000000000
     -0.437500000000     -0.437500000000      0.000000000000
     -0.375000000000     -0.437500000000      0.000000000000
     -0.312500000000     -0.437500000000      0.000000000000
     -0.250000000000     -0.437500000000      0.000000000000
     -0.187500000000     -0.437500000000      0.000000000000
     -0.125000000000     -0.437500000000      0.000000000000
     -0.062500000000     -0.437500000000      0.000000000000
      0.000000000000     -0.375000000000      0.000000000000
      0.062500000000     -0.375000000000      0.000000000000
      0.125000000000     -0.375000000000      0.000000000000
      0.187500000000     -0.375000000000      0.000000000000
      0.250000000000     -0.375000000000      0.000000000000
      0.312500000000     -0.375000000000      0.000000000000
      0.375000000000     -0.375000000000      0.000000000000
      0.437500000000     -0.375000000000      0.000000000000
      0.500000000000     -0.375000000000      0.000000000000
     -0.437500000000     -0.375000000000      0.000000000000
     -0.375000000000     -0.375000000000      0.000000000000
     -0.312500000000     -0.375000000000      0.000000000000
     -0.250000000000     -0.375000000000      0.000000000000
     -0.187500000000     -0.375000000000      0.000000000000
     -0.125000000000     -0.375000000000      0.000000000000
     -0.062500000000     -0.375000000000      0.000000000000
      0.000000000000     -0.312500000000      0.000000000000
      0.062500000000     -0.312500000000      0.000000000000
      0.125000000000     -0.312500000000      0.000000000000
      0.187500000000     -0.312500000000      0.000000000000
      0.250000000000     -0.312500000000      0.000000000000
      0.312500000000     -0.312500000000      0.000000000000
      0.375000000000     -0.312500000000      0.000000000000
      0.437500000000     -0.312500000000      0.000000000000
      0.500000000000     -0.312500000000      0.000000000000
     -0.437500000000     -0.312500000000      0.000000000000
     -0.375000000000     -0.312500000000      0.000000000000
     -0.312500000000     -0.312500000000      0.000000000000
     -0.250000000000     -0.312500000000      0.000000000000
     -0.187500000000     -0.312500000000      0.000000000000
     -0.125000000000     -0.312500000000      0.000000000000
     -0.062500000000     -0.312500000000      0.000000000000
      0.000000000000     -0.250000000000      0.000000000000
      0.062500000000     -0.250000000000      0.000000000000
      0.125000000000     -0.250000000000      0.000000000000
      0.187500000000     -0.250000000000      0.000000000000
      0.250000000000     -0.250000000000      0.000000000000
      0.312500000000     -0.250000000000      0.000000000000
      0.375000000000     -0.250000000000      0.000000000000
      0.437500000000     -0.250000000000      0.000000000000
      0.500000000000     -0.250000000000      0.000000000000
     -0.437500000000     -0.250000000000      0.000000000000
     -0.375000000000     -0.250000000000      0.000000000000
     -0.312500000000     -0.250000000000      0.000000000000
     -0.250000000000     -0.250000000000      0.000000000000
     -0.187500000000     -0.250000000000      0.000000000000
     -0.125000000000     -0.250000000000      0.000000000000
     -0.062500000000     -0.250000000000      0.000000000000
      0.000000000000     -0.187500000000      0.000000000000
      0.062500000000     -0.187500000000      0.000000000000
      0.125000000000     -0.187500000000      0.000000000000
      0.187500000000     -0.187500000000      0.000000000000
      0.250000000000     -0.187500000000      0.000000000000
      0.312500000000     -0.187500000000      0.000000000000
      0.375000000000     -0.187500000000      0.000000000000
      0.437500000000     -0.187500000000      0.000000000000
      0.500000000000     -0.187500000000      0.000000000000
     -0.437500000000     -0.187500000000      0.000000000000
     -0.375000000000     -0.187500000000      0.000000000000
     -0.312500000000     -0.187500000000      0.000000000000
     -0.250000000000     -0.187500000000      0.000000000000
     -0.187500000000     -0.187500000000      0.000000000000
     -0.125000000000     -0.187500000000      0.000000000000
     -0.062500000000     -0.187500000000      0.000000000000
      0.000000000000     -0.125000000000      0.000000000000
      0.062500000000     -0.125000000000      0.000000000000
      0.125000000000     -0.125000000000      0.000000000000
      0.187500000000     -0.125000000000      0.000000000000
      0.250000000000     -0.125000000000      0.000000000000
      0.312500000000     -0.125000000000      0.000000000000
      0.375000000000     -0.125000000000      0.000000000000
      0.437500000000     -0.125000000000      0.000000000000
      0.500000000000     -0.125000000000      0.000000000000
     -0.437500000000     -0.125000000000      0.000000000000
     -0.375000000000     -0.125000000000      0.000000000000
     -0.312500000000     -0.125000000000      0.000000000000
     -0.250000000000     -0.125000000000      0.000000000000
     -0.187500000000     -0.125000000000      0.000000000000
     -0.125000000000     -0.125000000000      0.000000000000
     -0.062500000000     -0.125000000000      0.000000000000
      0.000000000000     -0.062500000000      0.000000000000
      0.062500000000     -0.062500000000      0.000000000000
      0.125000000000     -0.062500000000      0.000000000000
      0.187500000000     -0.062500000000      0.000000000000
      0.250000000000     -0.062500000000      0.000000000000
      0.312500000000     -0.062500000000      0.000000000000
      0.375000000000     -0.062500000000      0.000000000000
      0.437500000000     -0.062500000000      0.000000000000
      0.500000000000     -0.062500000000      0.000000000000
     -0.437500000000     -0.062500000000      0.000000000000
     -0.375000000000     -0.062500000000      0.000000000000
     -0.312500000000     -0.062500000000      0.000000000000
     -0.250000000000     -0.062500000000      0.000000000000
     -0.187500000000     -0.062500000000      0.000000000000
     -0.125000000000     -0.062500000000      0.000000000000
     -0.062500000000     -0.062500000000      0.000000000000
      0.000000000000      0.000000000000      0.062500000000
      0.062500000000      0.000000000000      0.062500000000
      0.125000000000      0.000000000000      0.062500000000
      0.187500000000      0.000000000000      0.062500000000
      0.250000000000      0.000000000000      0.062500000000
      0.312500000000      0.000000000000      0.062500000000
      0.375000000000      0.000000000000      0.062500000000
      0.437500000000      0.000000000000      0.062500000000
      0.500000000000      0.000000000000      0.062500000000
     -0.437500000000      0.000000000000      0.062500000000
     -0.375000000000      0.000000000000      0.062500000000
     -0.312500000000      0.000000000000      0.062500000000
     -0.250000000000      0.000000000000      0.062500000000
     -0.187500000000      0.000000000000      0.062500000000
     -0.125000000000      0.000000000000      0.062500000000
     -0.062500000000      0.000000000000      0.062500000000
      0.000000000000      0.062500000000      0.062500000000
      0.062500000000      0.062500000000      0.062500000000
      0.125000000000      0.062500000000      0.062500000000
      0.187500000000      0.062500000000      0.062500000000
      0.250000000000      0.062500000000      0.062500000000
      0.312500000000      0.062500000000      0.062500000000
      0.375000000000      0.062500000000      0.062500000000
      0.437500000000      0.062500000000      0.062500000000
      0.500000000000      0.062500000000      0.062500000000
     -0.437500000000      0.062500000000      0.062500000000
     -0.375000000000      0.062500000000      0.062500000000
     -0.312500000000      0.062500000000      0.062500000000
     -0.250000000000      0.062500000000      0.062500000000
     -0.187500000000      0.062500000000      0.062500000000
     -0.125000000000      0.062500000000      0.062500000000
     -0.062500000000      0.062500000000      0.062500000000
      0.000000000000      0.125000000000      0.062500000000
      0.062500000000      0.125000000000      0.062500000000
      0.125000000000      0.125000000000      0.062500000000
      0.187500000000      0.125000000000      0.062500000000
      0.250000000000      0.125000000000      0.062500000000
      0.312500000000      0.125000000000      0.062500000000
      0.375000000000      0.125000000000      0.062500000000
      0.437500000000      0.125000000000      0.062500000000
      0.500000000000      0.125000000000      0.062500000000
     -0.437500000000      0.125000000000      0.062500000000
     -0.375000000000      0.125000000000      0.062500000000
     -0.312500000000      0.125000000000      0.062500000000
     -0.250000000000      0.125000000000      0.062500000000
     -0.187500000000      0.125000000000      0.062500000000
     -0.125000000000      0.125000000000      0.062500000000
     -0.062500000000      0.125000000000      0.062500000000
      0.000000000000      0.187500000000      0.062500000000
      0.062500000000      0.187500000000      0.062500000000
      0.125000000000      0.187500000000      0.062500000000
      0.187500000000      0.187500000000      0.062500000000
      0.250000000000      0.187500000000      0.062500000000
      0.312500000000      0.187500000000      0.062500000000
      0.375000000000      0.187500000000      0.062500000000
      0.437500000000      0.187500000000      0.062500000000
      0.500000000000      0.187500000000      0.062500000000
     -0.437500000000      0.187500000000      0.062500000000
     -0.375000000000      0.187500000000      0.062500000000
     -0.312500000000      0.187500000000      0.062500000000
     -0.250000000000      0.187500000000      0.062500000000
     -0.187500000000      0.187500000000      0.062500000000
     -0.125000000000      0.187500000000      0.062500000000
     -0.062500000000      0.187500000000      0.062500000000
      0.000000000000      0.250000000000      0.062500000000
      0.062500000000      0.250000000000      0.062500000000
      0.125000000000      0.250000000000      0.062500000000
      0.187500000000      0.250000000000      0.062500000000
      0.250000000000      0.250000000000      0.062500000000
      0.312500000000      0.250000000000      0.062500000000
      0.375000000000      0.250000000000      0.062500000000
      0.437500000000      0.250000000000      0.062500000000
      0.500000000000      0.250000000000      0.062500000000
     -0.437500000000      0.250000000000      0.062500000000
     -0.375000000000      0.250000000000      0.062500000000
     -0.312500000000      0.250000000000      0.062500000000
     -0.250000000000      0.250000000000      0.062500000000
     -0.187500000000      0.250000000000      0.062500000000
     -0.125000000000      0.250000000000      0.062500000000
     -0.062500000000      0.250000000000      0.062500000000
      0.000000000000      0.312500000000      0.062500000000
      0.062500000000      0.312500000000      0.062500000000
      0.125000000000      0.312500000000      0.062500000000
      0.187500000000      0.312500000000      0.062500000000
      0.250000000000      0.312500000000      0.062500000000
      0.312500000000      0.312500000000      0.062500000000
      0.375000000000      0.312500000000      0.062500000000
      0.437500000000      0.312500000000      0.062500000000
      0.500000000000      0.312500000000      0.062500000000
     -0.437500000000      0.312500000000      0.062500000000
     -0.375000000000      0.312500000000      0.062500000000
     -0.312500000000      0.312500000000      0.062500000000
     -0.250000000000      0.312500000000      0.062500000000
     -0.187500000000      0.312500000000      0.062500000000
     -0.125000000000      0.312500000000      0.062500000000
     -0.062500000000      0.312500000000      0.062500000000
      0.000000000000      0.375000000000      0.062500000000
      0.062500000000      0.375000000000      0.062500000000
      0.125000000000      0.375000000000      0.062500000000
      0.187500000000      0.375000000000      0.062500000000
      0.250000000000      0.375000000000      0.062500000000
      0.312500000000      0.375000000000      0.062500000000
      0.375000000000      0.375000000000      0.062500000000
      0.437500000000      0.375000000000      0.062500000000
      0.500000000000      0.375000000000      0.062500000000
     -0.437500000000      0.375000000000      0.062500000000
     -0.375000000000      0.375000000000      0.062500000000
     -0.312500000000      0.375000000000      0.062500000000
     -0.250000000000      0.375000000000      0.062500000000
     -0.187500000000      0.375000000000      0.062500000000
     -0.125000000000      0.375000000000      0.062500000000
     -0.062500000000      0.375000000000      0.062500000000
      0.000000000000      0.437500000000      0.062500000000
      0.062500000000      0.437500000000      0.062500000000
      0.125000000000      0.437500000000      0.062500000000
      0.187500000000      0.437500000000      0.062500000000
      0.250000000000      0.437500000000      0.062500000000
      0.312500000000      0.437500000000      0.062500000000
      0.375000000000      0.437500000000      0.062500000000
      0.437500000000      0.437500000000      0.062500000000
      0.500000000000      0.437500000000      0.062500000000
     -0.437500000000      0.437500000000      0.062500000000
     -0.375000000000      0.437500000000      0.062500000000
     -0.312500000000      0.437500000000      0.062500000000
     -0.250000000000      0.437500000000      0.062500000000
     -0.187500000000      0.437500000000      0.062500000000
     -0.125000000000      0.437500000000      0.062500000000
     -0.062500000000      0.437500000000      0.062500000000
      0.000000000000      0.500000000000      0.062500000000
      0.062500000000      0.500000000000      0.062500000000
      0.125000000000      0.500000000000      0.062500000000
      0.187500000000      0.500000000000      0.062500000000
      0.250000000000      0.500000000000      0.062500000000
      0.312500000000      0.500000000000      0.062500000000
      0.375000000000      0.500000000000      0.062500000000
      0.437500000000      0.500000000000      0.062500000000
      0.500000000000      0.500000000000      0.062500000000
     -0.437500000000      0.500000000000      0.062500000000
     -0.375000000000      0.500000000000      0.062500000000
     -0.312500000000      0.500000000000      0.062500000000
     -0.250000000000      0.500000000000      0.062500000000
     -0.187500000000      0.500000000000      0.062500000000
     -0.125000000000      0.500000000000      0.062500000000
     -0.062500000000      0.500000000000      0.062500000000
      0.000000000000     -0.437500000000      0.062500000000
      0.062500000000     -0.437500000000      0.062500000000
      0.125000000000     -0.437500000000      0.062500000000
      0.187500000000     -0.437500000000      0.062500000000
      0.250000000000     -0.437500000000      0.062500000000
      0.312500000000     -0.437500000000      0.062500000000
      0.375000000000     -0.437500000000      0.062500000000
      0.437500000000     -0.437500000000      0.062500000000
      0.500000000000     -0.437500000000      0.062500000000
     -0.437500000000     -0.437500000000      0.062500000000
     -0.375000000000     -0.437500000000      0.062500000000
     -0.312500000000     -0.437500000000      0.062500000000
     -0.250000000000     -0.437500000000      0.062500000000
     -0.187500000000     -0.437500000000      0.062500000000
     -0.125000000000     -0.437500000000      0.062500000000
     -0.062500000000     -0.437500000000      0.062500000000
      0.000000000000     -0.375000000000      0.062500000000
      0.062500000000     -0.375000000000      0.062500000000
      0.125000000000     -0.375000000000      0.062500000000
      0.187500000000     -0.375000000000      0.062500000000
      0.250000000000     -0.375000000000      0.062500000000
      0.312500000000     -0.375000000000      0.062500000000
      0.375000000000     -0.375000000000      0.062500000000
      0.437500000000     -0.375000000000      0.062500000000
      0.500000000000     -0.375000000000      0.062500000000
     -0.437500000000     -0.375000000000      0.062500000000
     -0.375000000000     -0.375000000000      0.062500000000
     -0.312500000000     -0.375000000000      0.062500000000
     -0.250000000000     -0.375000000000      0.062500000000
     -0.187500000000     -0.375000000000      0.062500000000
     -0.125000000000     -0.375000000000      0.062500000000
     -0.062500000000     -0.375000000000      0.062500000000
      0.000000000000     -0.312500000000      0.062500000000
      0.062500000000     -0.312500000000      0.062500000000
      0.125000000000     -0.312500000000      0.062500000000
      0.187500000000     -0.312500000000      0.062500000000
      0.250000000000     -0.312500000000      0.062500000000
      0.312500000000     -0.312500000000      0.062500000000
      0.375000000000     -0.312500000000      0.062500000000
      0.437500000000     -0.312500000000      0.062500000000
      0.500000000000     -0.312500000000      0.062500000000
     -0.437500000000     -0.312500000000      0.062500000000
     -0.375000000000     -0.312500000000      0.062500000000
     -0.312500000000     -0.312500000000      0.062500000000
     -0.250000000000     -0.312500000000      0.062500000000
     -0.187500000000     -0.312500000000      0.062500000000
     -0.125000000000     -0.312500000000      0.062500000000
     -0.062500000000     -0.312500000000      0.062500000000
      0.000000000000     -0.250000000000      0.062500000000
      0.062500000000     -0.250000000000      0.062500000000
      0.125000000000     -0.250000000000      0.062500000000
      0.187500000000     -0.250000000000      0.062500000000
      0.250000000000     -0.250000000000      0.062500000000
      0.312500000000     -0.250000000000      0.062500000000
      0.375000000000     -0.250000000000      0.062500000000
      0.437500000000     -0.250000000000      0.062500000000
      0.500000000000     -0.250000000000      0.062500000000
     -0.437500000000     -0.250000000000      0.062500000000
     -0.375000000000     -0.250000000000      0.062500000000
     -0.312500000000     -0.250000000000      0.062500000000
     -0.250000000000     -0.250000000000      0.062500000000
     -0.187500000000     -0.250000000000      0.062500000000
     -0.125000000000     -0.250000000000      0.062500000000
     -0.062500000000     -0.250000000000      0.062500000000
      0.000000000000     -0.187500000000      0.062500000000
      0.062500000000     -0.187500000000      0.062500000000
      0.125000000000     -0.187500000000      0.062500000000
      0.187500000000     -0.187500000000      0.062500000000