dis_win_min = -9
dis_win_max = 12
dis_froz_min = -5.0
dis_froz_max = -1.5
dis_conv_tol = 1.0d-10
conv_tol = 1.0d-10
num_iter = 2000
dis_num_iter = 2000
#write_hr = .true.
#write_tb = .true.
#write_xyz = .true.
#bands_plot = .true.
#write_u_matrices = .true.
#iprint=3
guiding_centres = T
#fermi_energy = -3.0924
#kpath = true
#kpath_task = bands+curv
#kpath_bands_colour = 
#kpath_num_points = 1000
#begin kpoint_path
#Gamma 0.00000 0.00000 0.00000   X     0.50000 0.00000 0.000000
#X     0.50000 0.00000 0.00000   M     0.50000 0.50000 0.000000
#M     0.50000 0.50000 0.00000   Gamma 0.00000 0.00000 0.000000
#end kpoint_path
#####################################
#####################################
#fermi_energy = -3.0924
#kslice = true
#kslice_task = curv+fermi_lines
#kslice_corner = 0.0 0.0 0.0
#kslice_b1 = 0.5 0.0 0.0
#kslice_b2 = 0.0 0.5 0.0
#kslice_2dkmesh = 400 400
######################################
fermi_energy = -3.0924
berry = true
berry_task = ahc
berry_kmesh = 25 25 25
berry_curv_adpt_kmesh = 5
berry_curv_adpt_kmesh_thresh = 50.0

begin projections
Fe:s;p;d
end projections
# This part was generated automatically by VASP
num_bands = 26
num_wann = 18
spinors = .true.
spn_formatted = .true.
begin unit_cell_cart
     2.4395185     0.0000000     0.0000000
     0.0000000     2.4395185     0.0000000
     0.0000000     0.0000000    17.2500000
end unit_cell_cart
begin atoms_cart
Fe       0.0000000     0.0000000     0.0000000
end atoms_cart
mp_grid =    14    14     1
begin kpoints
      0.035714285714      0.035714285714      0.000000000000
      0.107142857143      0.035714285714      0.000000000000
      0.178571428571      0.035714285714      0.000000000000
      0.250000000000      0.035714285714      0.000000000000
      0.321428571429      0.035714285714      0.000000000000
      0.392857142857      0.035714285714      0.000000000000
      0.464285714286      0.035714285714      0.000000000000
     -0.464285714286      0.035714285714      0.000000000000
     -0.392857142857      0.035714285714      0.000000000000
     -0.321428571429      0.035714285714      0.000000000000
     -0.250000000000      0.035714285714      0.000000000000
     -0.178571428571      0.035714285714      0.000000000000
     -0.107142857143      0.035714285714      0.000000000000
     -0.035714285714      0.035714285714      0.000000000000
      0.035714285714      0.107142857143      0.000000000000
      0.107142857143      0.107142857143      0.000000000000
      0.178571428571      0.107142857143      0.000000000000
      0.250000000000      0.107142857143      0.000000000000
      0.321428571429      0.107142857143      0.000000000000
      0.392857142857      0.107142857143      0.000000000000
      0.464285714286      0.107142857143      0.000000000000
     -0.464285714286      0.107142857143      0.000000000000
     -0.392857142857      0.107142857143      0.000000000000
     -0.321428571429      0.107142857143      0.000000000000
     -0.250000000000      0.107142857143      0.000000000000
     -0.178571428571      0.107142857143      0.000000000000
     -0.107142857143      0.107142857143      0.000000000000
     -0.035714285714      0.107142857143      0.000000000000
      0.035714285714      0.178571428571      0.000000000000
      0.107142857143      0.178571428571      0.000000000000
      0.178571428571      0.178571428571      0.000000000000
      0.250000000000      0.178571428571      0.000000000000
      0.321428571429      0.178571428571      0.000000000000
      0.392857142857      0.178571428571      0.000000000000
      0.464285714286      0.178571428571      0.000000000000
     -0.464285714286      0.178571428571      0.000000000000
     -0.392857142857      0.178571428571      0.000000000000
     -0.321428571429      0.178571428571      0.000000000000
     -0.250000000000      0.178571428571      0.000000000000
     -0.178571428571      0.178571428571      0.000000000000
     -0.107142857143      0.178571428571      0.000000000000
     -0.035714285714      0.178571428571      0.000000000000
      0.035714285714      0.250000000000      0.000000000000
      0.107142857143      0.250000000000      0.000000000000
      0.178571428571      0.250000000000      0.000000000000
      0.250000000000      0.250000000000      0.000000000000
      0.321428571429      0.250000000000      0.000000000000
      0.392857142857      0.250000000000      0.000000000000
      0.464285714286      0.250000000000      0.000000000000
     -0.464285714286      0.250000000000      0.000000000000
     -0.392857142857      0.250000000000      0.000000000000
     -0.321428571429      0.250000000000      0.000000000000
     -0.250000000000      0.250000000000      0.000000000000
     -0.178571428571      0.250000000000      0.000000000000
     -0.107142857143      0.250000000000      0.000000000000
     -0.035714285714      0.250000000000      0.000000000000
      0.035714285714      0.321428571429      0.000000000000
      0.107142857143      0.321428571429      0.000000000000
      0.178571428571      0.321428571429      0.000000000000
      0.250000000000      0.321428571429      0.000000000000
      0.321428571429      0.321428571429      0.000000000000
      0.392857142857      0.321428571429      0.000000000000
      0.464285714286      0.321428571429      0.000000000000
     -0.464285714286      0.321428571429      0.000000000000
     -0.392857142857      0.321428571429      0.000000000000
     -0.321428571429      0.321428571429      0.000000000000
     -0.250000000000      0.321428571429      0.000000000000
     -0.178571428571      0.321428571429      0.000000000000
     -0.107142857143      0.321428571429      0.000000000000
     -0.035714285714      0.321428571429      0.000000000000
      0.035714285714      0.392857142857      0.000000000000
      0.107142857143      0.392857142857      0.000000000000
      0.178571428571      0.392857142857      0.000000000000
      0.250000000000      0.392857142857      0.000000000000
      0.321428571429      0.392857142857      0.000000000000
      0.392857142857      0.392857142857      0.000000000000
      0.464285714286      0.392857142857      0.000000000000
     -0.464285714286      0.392857142857      0.000000000000
     -0.392857142857      0.392857142857      0.000000000000
     -0.321428571429      0.392857142857      0.000000000000
     -0.250000000000      0.392857142857      0.000000000000
     -0.178571428571      0.392857142857      0.000000000000
     -0.107142857143      0.392857142857      0.000000000000
     -0.035714285714      0.392857142857      0.000000000000
      0.035714285714      0.464285714286      0.000000000000
      0.107142857143      0.464285714286      0.000000000000
      0.178571428571      0.464285714286      0.000000000000
      0.250000000000      0.464285714286      0.000000000000
      0.321428571429      0.464285714286      0.000000000000
      0.392857142857      0.464285714286      0.000000000000
      0.464285714286      0.464285714286      0.000000000000
     -0.464285714286      0.464285714286      0.000000000000
     -0.392857142857      0.464285714286      0.000000000000
     -0.321428571429      0.464285714286      0.000000000000
     -0.250000000000      0.464285714286      0.000000000000
     -0.178571428571      0.464285714286      0.000000000000
     -0.107142857143      0.464285714286      0.000000000000
     -0.035714285714      0.464285714286      0.000000000000
      0.035714285714     -0.464285714286      0.000000000000
      0.107142857143     -0.464285714286      0.000000000000
      0.178571428571     -0.464285714286      0.000000000000
      0.250000000000     -0.464285714286      0.000000000000
      0.321428571429     -0.464285714286      0.000000000000
      0.392857142857     -0.464285714286      0.000000000000
      0.464285714286     -0.464285714286      0.000000000000
     -0.464285714286     -0.464285714286      0.000000000000
     -0.392857142857     -0.464285714286      0.000000000000
     -0.321428571429     -0.464285714286      0.000000000000
     -0.250000000000     -0.464285714286      0.000000000000
     -0.178571428571     -0.464285714286      0.000000000000
     -0.107142857143     -0.464285714286      0.000000000000
     -0.035714285714     -0.464285714286      0.000000000000
      0.035714285714     -0.392857142857      0.000000000000
      0.107142857143     -0.392857142857      0.000000000000
      0.178571428571     -0.392857142857      0.000000000000
      0.250000000000     -0.392857142857      0.000000000000
      0.321428571429     -0.392857142857      0.000000000000
      0.392857142857     -0.392857142857      0.000000000000
      0.464285714286     -0.392857142857      0.000000000000
     -0.464285714286     -0.392857142857      0.000000000000
     -0.392857142857     -0.392857142857      0.000000000000
     -0.321428571429     -0.392857142857      0.000000000000
     -0.250000000000     -0.392857142857      0.000000000000
     -0.178571428571     -0.392857142857      0.000000000000
     -0.107142857143     -0.392857142857      0.000000000000
     -0.035714285714     -0.392857142857      0.000000000000
      0.035714285714     -0.321428571429      0.000000000000
      0.107142857143     -0.321428571429      0.000000000000
      0.178571428571     -0.321428571429      0.000000000000
      0.250000000000     -0.321428571429      0.000000000000
      0.321428571429     -0.321428571429      0.000000000000
      0.392857142857     -0.321428571429      0.000000000000
      0.464285714286     -0.321428571429      0.000000000000
     -0.464285714286     -0.321428571429      0.000000000000
     -0.392857142857     -0.321428571429      0.000000000000
     -0.321428571429     -0.321428571429      0.000000000000
     -0.250000000000     -0.321428571429      0.000000000000
     -0.178571428571     -0.321428571429      0.000000000000
     -0.107142857143     -0.321428571429      0.000000000000
     -0.035714285714     -0.321428571429      0.000000000000
      0.035714285714     -0.250000000000      0.000000000000
      0.107142857143     -0.250000000000      0.000000000000
      0.178571428571     -0.250000000000      0.000000000000
      0.250000000000     -0.250000000000      0.000000000000
      0.321428571429     -0.250000000000      0.000000000000
      0.392857142857     -0.250000000000      0.000000000000
      0.464285714286     -0.250000000000      0.000000000000
     -0.464285714286     -0.250000000000      0.000000000000
     -0.392857142857     -0.250000000000      0.000000000000
     -0.321428571429     -0.250000000000      0.000000000000
     -0.250000000000     -0.250000000000      0.000000000000
     -0.178571428571     -0.250000000000      0.000000000000
     -0.107142857143     -0.250000000000      0.000000000000
     -0.035714285714     -0.250000000000      0.000000000000
      0.035714285714     -0.178571428571      0.000000000000
      0.107142857143     -0.178571428571      0.000000000000
      0.178571428571     -0.178571428571      0.000000000000
      0.250000000000     -0.178571428571      0.000000000000
      0.321428571429     -0.178571428571      0.000000000000
      0.392857142857     -0.178571428571      0.000000000000
      0.464285714286     -0.178571428571      0.000000000000
     -0.464285714286     -0.178571428571      0.000000000000
     -0.392857142857     -0.178571428571      0.000000000000
     -0.321428571429     -0.178571428571      0.000000000000
     -0.250000000000     -0.178571428571      0.000000000000
     -0.178571428571     -0.178571428571      0.000000000000
     -0.107142857143     -0.178571428571      0.000000000000
     -0.035714285714     -0.178571428571      0.000000000000
      0.035714285714     -0.107142857143      0.000000000000
      0.107142857143     -0.107142857143      0.000000000000
      0.178571428571     -0.107142857143      0.000000000000
      0.250000000000     -0.107142857143      0.000000000000
      0.321428571429     -0.107142857143      0.000000000000
      0.392857142857     -0.107142857143      0.000000000000
      0.464285714286     -0.107142857143      0.000000000000
     -0.464285714286     -0.107142857143      0.000000000000
     -0.392857142857     -0.107142857143      0.000000000000
     -0.321428571429     -0.107142857143      0.000000000000
     -0.250000000000     -0.107142857143      0.000000000000
     -0.178571428571     -0.107142857143      0.000000000000
     -0.107142857143     -0.107142857143      0.000000000000
     -0.035714285714     -0.107142857143      0.000000000000
      0.035714285714     -0.035714285714      0.000000000000
      0.107142857143     -0.035714285714      0.000000000000
      0.178571428571     -0.035714285714      0.000000000000
      0.250000000000     -0.035714285714      0.000000000000
      0.321428571429     -0.035714285714      0.000000000000
      0.392857142857     -0.035714285714      0.000000000000
      0.464285714286     -0.035714285714      0.000000000000
     -0.464285714286     -0.035714285714      0.000000000000
     -0.392857142857     -0.035714285714      0.000000000000
     -0.321428571429     -0.035714285714      0.000000000000
     -0.250000000000     -0.035714285714      0.000000000000
     -0.178571428571     -0.035714285714      0.000000000000
     -0.107142857143     -0.035714285714      0.000000000000
     -0.035714285714     -0.035714285714      0.000000000000
end kpoints
