dis_win_min = -15
dis_win_max = 5
dis_froz_min = -7
dis_froz_max =0.55
dis_conv_tol = 1.0d-10
conv_tol = 1.0d-10
num_iter = 4000
dis_num_iter = 4000
write_hr = .true.
write_tb = .true.
write_xyz = .true.
bands_plot = .true.
write_u_matrices = .true.
iprint=3
guiding_centres = T
begin kpoint_path
Gamma 0.00000 0.00000 0.00000   X     0.50000 0.00000 0.000000
X     0.50000 0.00000 0.00000   S     0.50000 0.50000 0.000000
S     0.50000 0.50000 0.00000   Y     0.00000 0.50000 0.000000
Y     0.00000 0.50000 0.00000   Gamma 0.00000 0.00000 0.000000
end kpoint_path
begin projections
Te:p
Mn:d
Si:s;p
end projections
# This part was generated automatically by VASP
num_bands = 144
num_wann = 100
begin unit_cell_cart
     6.9021741     0.0000000     0.0000000
     0.0004823    16.2405749     0.0000000
     3.3884205     2.0551528    22.4852533
end unit_cell_cart
begin atoms_cart
Te       1.1018986    16.0541347     1.6513048
Te       2.2869362     2.2418027     5.7669569
Te       1.1016575     7.9338473     1.6513048
Te       2.2871773    10.3620902     5.7669570
Te       4.6709608     6.0962766     1.8674654
Te       5.6200492    12.1995630     5.5510503
Te       4.6712019    14.2165640     1.8674654
Te       5.6198081     4.0792756     5.5510503
Te       4.5525563     2.2414494     1.6509567
Te       5.7384737    16.0544631     5.7673259
Te       4.5527974    10.3617369     1.6509567
Te       5.7382326     7.9341757     5.7673260
Te       1.2196922     4.0788981     1.8667659
Te       2.1692925    14.2168361     5.5513468
Te       1.2199334    12.1991855     1.8667659
Te       2.1690514     6.0965486     5.5513468
Mn       6.8718427    13.9970916     3.7091778
Mn       3.4195112     4.2977995     3.7090737
Mn       6.8716016     5.8768042     3.7091778
Mn       3.4197523    12.4180870     3.7090737
Si       3.4912765    16.3201630     2.5476477
Si       6.7996842     1.9757224     4.8706769
Si       3.4910354     8.1998755     2.5476477
Si       6.7999253    10.0960099     4.8706769
Si       6.9418108     1.9755317     2.5476314
Si       3.3492053    16.3203620     4.8706769
Si       6.9420519    10.0958191     2.5476314
Si       3.3489642     8.2000745     4.8706769
end atoms_cart
mp_grid =     7     3     1
begin kpoints
      0.000000000000      0.000000000000      0.000000000000
      0.142857142857     -0.000000000000      0.000000000000
      0.285714285714     -0.000000000000     -0.000000000000
      0.428571428571     -0.000000000000      0.000000000000
     -0.428571428571      0.000000000000     -0.000000000000
     -0.285714285714      0.000000000000      0.000000000000
     -0.142857142857      0.000000000000     -0.000000000000
      0.000000000000      0.333333333333     -0.000000000000
      0.142857142857      0.333333333333      0.000000000000
      0.285714285714      0.333333333333      0.000000000000
      0.428571428571      0.333333333333      0.000000000000
     -0.428571428571      0.333333333333      0.000000000000
     -0.285714285714      0.333333333333     -0.000000000000
     -0.142857142857      0.333333333333     -0.000000000000
      0.000000000000     -0.333333333333      0.000000000000
      0.142857142857     -0.333333333333     -0.000000000000
      0.285714285714     -0.333333333333      0.000000000000
      0.428571428571     -0.333333333333      0.000000000000
     -0.428571428571     -0.333333333333     -0.000000000000
     -0.285714285714     -0.333333333333      0.000000000000
     -0.142857142857     -0.333333333333     -0.000000000000
end kpoints
