#dis_win_min       = -4
#dis_win_max       = 10
#dis_froz_min      = 6.5
#dis_froz_max      = 8.5
#dis_num_iter      = 500
#num_iter          = 200

#write_hr=.true.
#write_tb = .true.
#write_xyz=.true.
#fermi_energy = 8.0848
#kpath = true
#kpath_task = bands+curv
#kpath_bands_colour = none
#kpath_num_points = 1000
#begin kpoint_path
#L 0.5 0.0 0.5    A 0.0 0.0 0.5
#A 0.0 0.0 0.5    G 0.0 0.0 0.0
#G 0.0 0.0 0.0    K 0.3 0.3 0.0
#K 0.3 0.3 0.0    M 0.5 0.0 0.0
#M 0.5 0.0 0.0    G 0.0 0.0 0.0
#end kpoint_path

#-------------------------------------
#------------------------------------
fermi_energy = 8.0848
kslice = true
kslice_task = curv+fermi_lines
kslice_corner = 0.0 0.0 0.0
kslice_b1 = 0.5 -0.5 -0.5
kslice_b2 = 0.5 0.5 0.5
kslice_2dkmesh = 200 200
#------------------------------------
#------------------------------------

begin projections
Mn:d
Sn:p
end projections
# This part was generated automatically by VASP
num_bands = 144
num_wann = 72
spinors = .true.
spn_formatted = .true.
begin unit_cell_cart
     5.3569829     0.0000000     0.0000000
    -2.6784914     4.6392833     0.0000000
     0.0000000     0.0000000     4.3141010
end unit_cell_cart
begin atoms_cart
Mn      -0.0031936     1.3544064     1.0785490
Mn       2.6761402     3.2848072     3.2355520
Mn       1.5063901     3.9657709     1.0785488
Mn       1.1770220     0.6797057     3.2355517
Mn      -1.5010721     3.9588923     1.0785494
Mn       4.1845297     0.6742327     3.2355522
Sn      -0.0017936     3.0917948     3.2356005
Sn       2.6759429     1.5475229     1.0785006
end atoms_cart
mp_grid =     9     9     7
begin kpoints
      0.000000000000      0.000000000000      0.000000000000
      0.111111111111      0.000000000000      0.000000000000
      0.222222222222      0.000000000000      0.000000000000
      0.333333333333      0.000000000000      0.000000000000
      0.444444444444      0.000000000000      0.000000000000
     -0.444444444444      0.000000000000      0.000000000000
     -0.333333333333      0.000000000000      0.000000000000
     -0.222222222222      0.000000000000      0.000000000000
     -0.111111111111      0.000000000000      0.000000000000
      0.000000000000      0.111111111111      0.000000000000
      0.111111111111      0.111111111111      0.000000000000
      0.222222222222      0.111111111111      0.000000000000
      0.333333333333      0.111111111111      0.000000000000
      0.444444444444      0.111111111111      0.000000000000
     -0.444444444444      0.111111111111      0.000000000000
     -0.333333333333      0.111111111111      0.000000000000
     -0.222222222222      0.111111111111      0.000000000000
     -0.111111111111      0.111111111111      0.000000000000
      0.000000000000      0.222222222222      0.000000000000
      0.111111111111      0.222222222222      0.000000000000
      0.222222222222      0.222222222222      0.000000000000
      0.333333333333      0.222222222222      0.000000000000
      0.444444444444      0.222222222222      0.000000000000
     -0.444444444444      0.222222222222      0.000000000000
     -0.333333333333      0.222222222222      0.000000000000
     -0.222222222222      0.222222222222      0.000000000000
     -0.111111111111      0.222222222222      0.000000000000
      0.000000000000      0.333333333333      0.000000000000
      0.111111111111      0.333333333333      0.000000000000
      0.222222222222      0.333333333333      0.000000000000
      0.333333333333      0.333333333333      0.000000000000
      0.444444444444      0.333333333333      0.000000000000
     -0.444444444444      0.333333333333      0.000000000000
     -0.333333333333      0.333333333333      0.000000000000
     -0.222222222222      0.333333333333      0.000000000000
     -0.111111111111      0.333333333333      0.000000000000
      0.000000000000      0.444444444444      0.000000000000
      0.111111111111      0.444444444444      0.000000000000
      0.222222222222      0.444444444444      0.000000000000
      0.333333333333      0.444444444444      0.000000000000
      0.444444444444      0.444444444444      0.000000000000
     -0.444444444444      0.444444444444      0.000000000000
     -0.333333333333      0.444444444444      0.000000000000
     -0.222222222222      0.444444444444      0.000000000000
     -0.111111111111      0.444444444444      0.000000000000
      0.000000000000     -0.444444444444      0.000000000000
      0.111111111111     -0.444444444444      0.000000000000
      0.222222222222     -0.444444444444      0.000000000000
      0.333333333333     -0.444444444444      0.000000000000
      0.444444444444     -0.444444444444      0.000000000000
     -0.444444444444     -0.444444444444      0.000000000000
     -0.333333333333     -0.444444444444      0.000000000000
     -0.222222222222     -0.444444444444      0.000000000000
     -0.111111111111     -0.444444444444      0.000000000000
      0.000000000000     -0.333333333333      0.000000000000
      0.111111111111     -0.333333333333      0.000000000000
      0.222222222222     -0.333333333333      0.000000000000
      0.333333333333     -0.333333333333      0.000000000000
      0.444444444444     -0.333333333333      0.000000000000
     -0.444444444444     -0.333333333333      0.000000000000
     -0.333333333333     -0.333333333333      0.000000000000
     -0.222222222222     -0.333333333333      0.000000000000
     -0.111111111111     -0.333333333333      0.000000000000
      0.000000000000     -0.222222222222      0.000000000000
      0.111111111111     -0.222222222222      0.000000000000
      0.222222222222     -0.222222222222      0.000000000000
      0.333333333333     -0.222222222222      0.000000000000
      0.444444444444     -0.222222222222      0.000000000000
     -0.444444444444     -0.222222222222      0.000000000000
     -0.333333333333     -0.222222222222      0.000000000000
     -0.222222222222     -0.222222222222      0.000000000000
     -0.111111111111     -0.222222222222      0.000000000000
      0.000000000000     -0.111111111111      0.000000000000
      0.111111111111     -0.111111111111      0.000000000000
      0.222222222222     -0.111111111111      0.000000000000
      0.333333333333     -0.111111111111      0.000000000000
      0.444444444444     -0.111111111111      0.000000000000
     -0.444444444444     -0.111111111111      0.000000000000
     -0.333333333333     -0.111111111111      0.000000000000
     -0.222222222222     -0.111111111111      0.000000000000
     -0.111111111111     -0.111111111111      0.000000000000
      0.000000000000      0.000000000000      0.142857142857
      0.111111111111      0.000000000000      0.142857142857
      0.222222222222      0.000000000000      0.142857142857
      0.333333333333      0.000000000000      0.142857142857
      0.444444444444      0.000000000000      0.142857142857
     -0.444444444444      0.000000000000      0.142857142857
     -0.333333333333      0.000000000000      0.142857142857
     -0.222222222222      0.000000000000      0.142857142857
     -0.111111111111      0.000000000000      0.142857142857
      0.000000000000      0.111111111111      0.142857142857
      0.111111111111      0.111111111111      0.142857142857
      0.222222222222      0.111111111111      0.142857142857
      0.333333333333      0.111111111111      0.142857142857
      0.444444444444      0.111111111111      0.142857142857
     -0.444444444444      0.111111111111      0.142857142857
     -0.333333333333      0.111111111111      0.142857142857
     -0.222222222222      0.111111111111      0.142857142857
     -0.111111111111      0.111111111111      0.142857142857
      0.000000000000      0.222222222222      0.142857142857
      0.111111111111      0.222222222222      0.142857142857
      0.222222222222      0.222222222222      0.142857142857
      0.333333333333      0.222222222222      0.142857142857
      0.444444444444      0.222222222222      0.142857142857
     -0.444444444444      0.222222222222      0.142857142857
     -0.333333333333      0.222222222222      0.142857142857
     -0.222222222222      0.222222222222      0.142857142857
     -0.111111111111      0.222222222222      0.142857142857
      0.000000000000      0.333333333333      0.142857142857
      0.111111111111      0.333333333333      0.142857142857
      0.222222222222      0.333333333333      0.142857142857
      0.333333333333      0.333333333333      0.142857142857
      0.444444444444      0.333333333333      0.142857142857
     -0.444444444444      0.333333333333      0.142857142857
     -0.333333333333      0.333333333333      0.142857142857
     -0.222222222222      0.333333333333      0.142857142857
     -0.111111111111      0.333333333333      0.142857142857
      0.000000000000      0.444444444444      0.142857142857
      0.111111111111      0.444444444444      0.142857142857
      0.222222222222      0.444444444444      0.142857142857
      0.333333333333      0.444444444444      0.142857142857
      0.444444444444      0.444444444444      0.142857142857
     -0.444444444444      0.444444444444      0.142857142857
     -0.333333333333      0.444444444444      0.142857142857
     -0.222222222222      0.444444444444      0.142857142857
     -0.111111111111      0.444444444444      0.142857142857
      0.000000000000     -0.444444444444      0.142857142857
      0.111111111111     -0.444444444444      0.142857142857
      0.222222222222     -0.444444444444      0.142857142857
      0.333333333333     -0.444444444444      0.142857142857
      0.444444444444     -0.444444444444      0.142857142857
     -0.444444444444     -0.444444444444      0.142857142857
     -0.333333333333     -0.444444444444      0.142857142857
     -0.222222222222     -0.444444444444      0.142857142857
     -0.111111111111     -0.444444444444      0.142857142857
      0.000000000000     -0.333333333333      0.142857142857
      0.111111111111     -0.333333333333      0.142857142857
      0.222222222222     -0.333333333333      0.142857142857
      0.333333333333     -0.333333333333      0.142857142857
      0.444444444444     -0.333333333333      0.142857142857
     -0.444444444444     -0.333333333333      0.142857142857
     -0.333333333333     -0.333333333333      0.142857142857
     -0.222222222222     -0.333333333333      0.142857142857
     -0.111111111111     -0.333333333333      0.142857142857
      0.000000000000     -0.222222222222      0.142857142857
      0.111111111111     -0.222222222222      0.142857142857
      0.222222222222     -0.222222222222      0.142857142857
      0.333333333333     -0.222222222222      0.142857142857
      0.444444444444     -0.222222222222      0.142857142857
     -0.444444444444     -0.222222222222      0.142857142857
     -0.333333333333     -0.222222222222      0.142857142857
     -0.222222222222     -0.222222222222      0.142857142857
     -0.111111111111     -0.222222222222      0.142857142857
      0.000000000000     -0.111111111111      0.142857142857
      0.111111111111     -0.111111111111      0.142857142857
      0.222222222222     -0.111111111111      0.142857142857
      0.333333333333     -0.111111111111      0.142857142857
      0.444444444444     -0.111111111111      0.142857142857
     -0.444444444444     -0.111111111111      0.142857142857
     -0.333333333333     -0.111111111111      0.142857142857
     -0.222222222222     -0.111111111111      0.142857142857
     -0.111111111111     -0.111111111111      0.142857142857
      0.000000000000      0.000000000000      0.285714285714
      0.111111111111      0.000000000000      0.285714285714
      0.222222222222      0.000000000000      0.285714285714
      0.333333333333      0.000000000000      0.285714285714
      0.444444444444      0.000000000000      0.285714285714
     -0.444444444444      0.000000000000      0.285714285714
     -0.333333333333      0.000000000000      0.285714285714
     -0.222222222222      0.000000000000      0.285714285714
     -0.111111111111      0.000000000000      0.285714285714
      0.000000000000      0.111111111111      0.285714285714
      0.111111111111      0.111111111111      0.285714285714
      0.222222222222      0.111111111111      0.285714285714
      0.333333333333      0.111111111111      0.285714285714
      0.444444444444      0.111111111111      0.285714285714
     -0.444444444444      0.111111111111      0.285714285714
     -0.333333333333      0.111111111111      0.285714285714
     -0.222222222222      0.111111111111      0.285714285714
     -0.111111111111      0.111111111111      0.285714285714
      0.000000000000      0.222222222222      0.285714285714
      0.111111111111      0.222222222222      0.285714285714
      0.222222222222      0.222222222222      0.285714285714
      0.333333333333      0.222222222222      0.285714285714
      0.444444444444      0.222222222222      0.285714285714
     -0.444444444444      0.222222222222      0.285714285714
     -0.333333333333      0.222222222222      0.285714285714
     -0.222222222222      0.222222222222      0.285714285714
     -0.111111111111      0.222222222222      0.285714285714
      0.000000000000      0.333333333333      0.285714285714
      0.111111111111      0.333333333333      0.285714285714
      0.222222222222      0.333333333333      0.285714285714
      0.333333333333      0.333333333333      0.285714285714
      0.444444444444      0.333333333333      0.285714285714
     -0.444444444444      0.333333333333      0.285714285714
     -0.333333333333      0.333333333333      0.285714285714
     -0.222222222222      0.333333333333      0.285714285714
     -0.111111111111      0.333333333333      0.285714285714
      0.000000000000      0.444444444444      0.285714285714
      0.111111111111      0.444444444444      0.285714285714
      0.222222222222      0.444444444444      0.285714285714
      0.333333333333      0.444444444444      0.285714285714
      0.444444444444      0.444444444444      0.285714285714
     -0.444444444444      0.444444444444      0.285714285714
     -0.333333333333      0.444444444444      0.285714285714
     -0.222222222222      0.444444444444      0.285714285714
     -0.111111111111      0.444444444444      0.285714285714
      0.000000000000     -0.444444444444      0.285714285714
      0.111111111111     -0.444444444444      0.285714285714
      0.222222222222     -0.444444444444      0.285714285714
      0.333333333333     -0.444444444444      0.285714285714
      0.444444444444     -0.444444444444      0.285714285714
     -0.444444444444     -0.444444444444      0.285714285714
     -0.333333333333     -0.444444444444      0.285714285714
     -0.222222222222     -0.444444444444      0.285714285714
     -0.111111111111     -0.444444444444      0.285714285714
      0.000000000000     -0.333333333333      0.285714285714
      0.111111111111     -0.333333333333      0.285714285714
      0.222222222222     -0.333333333333      0.285714285714
      0.333333333333     -0.333333333333      0.285714285714
      0.444444444444     -0.333333333333      0.285714285714
     -0.444444444444     -0.333333333333      0.285714285714
     -0.333333333333     -0.333333333333      0.285714285714
     -0.222222222222     -0.333333333333      0.285714285714
     -0.111111111111     -0.333333333333      0.285714285714
      0.000000000000     -0.222222222222      0.285714285714
      0.111111111111     -0.222222222222      0.285714285714
      0.222222222222     -0.222222222222      0.285714285714
      0.333333333333     -0.222222222222      0.285714285714
      0.444444444444     -0.222222222222      0.285714285714
     -0.444444444444     -0.222222222222      0.285714285714
     -0.333333333333     -0.222222222222      0.285714285714
     -0.222222222222     -0.222222222222      0.285714285714
     -0.111111111111     -0.222222222222      0.285714285714
      0.000000000000     -0.111111111111      0.285714285714
      0.111111111111     -0.111111111111      0.285714285714
      0.222222222222     -0.111111111111      0.285714285714
      0.333333333333     -0.111111111111      0.285714285714
      0.444444444444     -0.111111111111      0.285714285714
     -0.444444444444     -0.111111111111      0.285714285714
     -0.333333333333     -0.111111111111      0.285714285714
     -0.222222222222     -0.111111111111      0.285714285714
     -0.111111111111     -0.111111111111      0.285714285714
      0.000000000000      0.000000000000      0.428571428571
      0.111111111111      0.000000000000      0.428571428571
      0.222222222222      0.000000000000      0.428571428571
      0.333333333333      0.000000000000      0.428571428571
      0.444444444444      0.000000000000      0.428571428571
     -0.444444444444      0.000000000000      0.428571428571
     -0.333333333333      0.000000000000      0.428571428571
     -0.222222222222      0.000000000000      0.428571428571
     -0.111111111111      0.000000000000      0.428571428571
      0.000000000000      0.111111111111      0.428571428571
      0.111111111111      0.111111111111      0.428571428571
      0.222222222222      0.111111111111      0.428571428571
      0.333333333333      0.111111111111      0.428571428571
      0.444444444444      0.111111111111      0.428571428571
     -0.444444444444      0.111111111111      0.428571428571
     -0.333333333333      0.111111111111      0.428571428571
     -0.222222222222      0.111111111111      0.428571428571
     -0.111111111111      0.111111111111      0.428571428571
      0.000000000000      0.222222222222      0.428571428571
      0.111111111111      0.222222222222      0.428571428571
      0.222222222222      0.222222222222      0.428571428571
      0.333333333333      0.222222222222      0.428571428571
      0.444444444444      0.222222222222      0.428571428571
     -0.444444444444      0.222222222222      0.428571428571
     -0.333333333333      0.222222222222      0.428571428571
     -0.222222222222      0.222222222222      0.428571428571
     -0.111111111111      0.222222222222      0.428571428571
      0.000000000000      0.333333333333      0.428571428571
      0.111111111111      0.333333333333      0.428571428571
      0.222222222222      0.333333333333      0.428571428571
      0.333333333333      0.333333333333      0.428571428571
      0.444444444444      0.333333333333      0.428571428571
     -0.444444444444      0.333333333333      0.428571428571
     -0.333333333333      0.333333333333      0.428571428571
     -0.222222222222      0.333333333333      0.428571428571
     -0.111111111111      0.333333333333      0.428571428571
      0.000000000000      0.444444444444      0.428571428571
      0.111111111111      0.444444444444      0.428571428571
      0.222222222222      0.444444444444      0.428571428571
      0.333333333333      0.444444444444      0.428571428571
      0.444444444444      0.444444444444      0.428571428571
     -0.444444444444      0.444444444444      0.428571428571
     -0.333333333333      0.444444444444      0.428571428571
     -0.222222222222      0.444444444444      0.428571428571
     -0.111111111111      0.444444444444      0.428571428571
      0.000000000000     -0.444444444444      0.428571428571
      0.111111111111     -0.444444444444      0.428571428571
      0.222222222222     -0.444444444444      0.428571428571
      0.333333333333     -0.444444444444      0.428571428571
      0.444444444444     -0.444444444444      0.428571428571
     -0.444444444444     -0.444444444444      0.428571428571
     -0.333333333333     -0.444444444444      0.428571428571
     -0.222222222222     -0.444444444444      0.428571428571
     -0.111111111111     -0.444444444444      0.428571428571
      0.000000000000     -0.333333333333      0.428571428571
      0.111111111111     -0.333333333333      0.428571428571
      0.222222222222     -0.333333333333      0.428571428571
      0.333333333333     -0.333333333333      0.428571428571
      0.444444444444     -0.333333333333      0.428571428571
     -0.444444444444     -0.333333333333      0.428571428571
     -0.333333333333     -0.333333333333      0.428571428571
     -0.222222222222     -0.333333333333      0.428571428571
     -0.111111111111     -0.333333333333      0.428571428571
      0.000000000000     -0.222222222222      0.428571428571
      0.111111111111     -0.222222222222      0.428571428571
      0.222222222222     -0.222222222222      0.428571428571
      0.333333333333     -0.222222222222      0.428571428571
      0.444444444444     -0.222222222222      0.428571428571
     -0.444444444444     -0.222222222222      0.428571428571
     -0.333333333333     -0.222222222222      0.428571428571
     -0.222222222222     -0.222222222222      0.428571428571
     -0.111111111111     -0.222222222222      0.428571428571
      0.000000000000     -0.111111111111      0.428571428571
      0.111111111111     -0.111111111111      0.428571428571
      0.222222222222     -0.111111111111      0.428571428571
      0.333333333333     -0.111111111111      0.428571428571
      0.444444444444     -0.111111111111      0.428571428571
     -0.444444444444     -0.111111111111      0.428571428571
     -0.333333333333     -0.111111111111      0.428571428571
     -0.222222222222     -0.111111111111      0.428571428571
     -0.111111111111     -0.111111111111      0.428571428571
      0.000000000000      0.000000000000     -0.428571428571
      0.111111111111      0.000000000000     -0.428571428571
      0.222222222222      0.000000000000     -0.428571428571
      0.333333333333      0.000000000000     -0.428571428571
      0.444444444444      0.000000000000     -0.428571428571
     -0.444444444444      0.000000000000     -0.428571428571
     -0.333333333333      0.000000000000     -0.428571428571
     -0.222222222222      0.000000000000     -0.428571428571
     -0.111111111111      0.000000000000     -0.428571428571
      0.000000000000      0.111111111111     -0.428571428571
      0.111111111111      0.111111111111     -0.428571428571
      0.222222222222      0.111111111111     -0.428571428571
      0.333333333333      0.111111111111     -0.428571428571
      0.444444444444      0.111111111111     -0.428571428571
     -0.444444444444      0.111111111111     -0.428571428571
     -0.333333333333      0.111111111111     -0.428571428571
     -0.222222222222      0.111111111111     -0.428571428571
     -0.111111111111      0.111111111111     -0.428571428571
      0.000000000000      0.222222222222     -0.428571428571
      0.111111111111      0.222222222222     -0.428571428571
      0.222222222222      0.222222222222     -0.428571428571
      0.333333333333      0.222222222222     -0.428571428571
      0.444444444444      0.222222222222     -0.428571428571
     -0.444444444444      0.222222222222     -0.428571428571
     -0.333333333333      0.222222222222     -0.428571428571
     -0.222222222222      0.222222222222     -0.428571428571
     -0.111111111111      0.222222222222     -0.428571428571
      0.000000000000      0.333333333333     -0.428571428571
      0.111111111111      0.333333333333     -0.428571428571
      0.222222222222      0.333333333333     -0.428571428571
      0.333333333333      0.333333333333     -0.428571428571
      0.444444444444      0.333333333333     -0.428571428571
     -0.444444444444      0.333333333333     -0.428571428571
     -0.333333333333      0.333333333333     -0.428571428571
     -0.222222222222      0.333333333333     -0.428571428571
     -0.111111111111      0.333333333333     -0.428571428571
      0.000000000000      0.444444444444     -0.428571428571
      0.111111111111      0.444444444444     -0.428571428571
      0.222222222222      0.444444444444     -0.428571428571
      0.333333333333      0.444444444444     -0.428571428571
      0.444444444444      0.444444444444     -0.428571428571
     -0.444444444444      0.444444444444     -0.428571428571
     -0.333333333333      0.444444444444     -0.428571428571
     -0.222222222222      0.444444444444     -0.428571428571
     -0.111111111111      0.444444444444     -0.428571428571
      0.000000000000     -0.444444444444     -0.428571428571
      0.111111111111     -0.444444444444     -0.428571428571
      0.222222222222     -0.444444444444     -0.428571428571
      0.333333333333     -0.444444444444     -0.428571428571
      0.444444444444     -0.444444444444     -0.428571428571
     -0.444444444444     -0.444444444444     -0.428571428571
     -0.333333333333     -0.444444444444     -0.428571428571
     -0.222222222222     -0.444444444444     -0.428571428571
     -0.111111111111     -0.444444444444     -0.428571428571
      0.000000000000     -0.333333333333     -0.428571428571
      0.111111111111     -0.333333333333     -0.428571428571
      0.222222222222     -0.333333333333     -0.428571428571
      0.333333333333     -0.333333333333     -0.428571428571
      0.444444444444     -0.333333333333     -0.428571428571
     -0.444444444444     -0.333333333333     -0.428571428571
     -0.333333333333     -0.333333333333     -0.428571428571
     -0.222222222222     -0.333333333333     -0.428571428571
     -0.111111111111     -0.333333333333     -0.428571428571
      0.000000000000     -0.222222222222     -0.428571428571
      0.111111111111     -0.222222222222     -0.428571428571
      0.222222222222     -0.222222222222     -0.428571428571
      0.333333333333     -0.222222222222     -0.428571428571
      0.444444444444     -0.222222222222     -0.428571428571
     -0.444444444444     -0.222222222222     -0.428571428571
     -0.333333333333     -0.222222222222     -0.428571428571
     -0.222222222222     -0.222222222222     -0.428571428571
     -0.111111111111     -0.222222222222     -0.428571428571
      0.000000000000     -0.111111111111     -0.428571428571
      0.111111111111     -0.111111111111     -0.428571428571
      0.222222222222     -0.111111111111     -0.428571428571
      0.333333333333     -0.111111111111     -0.428571428571
      0.444444444444     -0.111111111111     -0.428571428571
     -0.444444444444     -0.111111111111     -0.428571428571
     -0.333333333333     -0.111111111111     -0.428571428571
     -0.222222222222     -0.111111111111     -0.428571428571
     -0.111111111111     -0.111111111111     -0.428571428571
      0.000000000000      0.000000000000     -0.285714285714
      0.111111111111      0.000000000000     -0.285714285714
      0.222222222222      0.000000000000     -0.285714285714
      0.333333333333      0.000000000000     -0.285714285714
      0.444444444444      0.000000000000     -0.285714285714
     -0.444444444444      0.000000000000     -0.285714285714
     -0.333333333333      0.000000000000     -0.285714285714
     -0.222222222222      0.000000000000     -0.285714285714
     -0.111111111111      0.000000000000     -0.285714285714
      0.000000000000      0.111111111111     -0.285714285714
      0.111111111111      0.111111111111     -0.285714285714
      0.222222222222      0.111111111111     -0.285714285714
      0.333333333333      0.111111111111     -0.285714285714
      0.444444444444      0.111111111111     -0.285714285714
     -0.444444444444      0.111111111111     -0.285714285714
     -0.333333333333      0.111111111111     -0.285714285714
     -0.222222222222      0.111111111111     -0.285714285714
     -0.111111111111      0.111111111111     -0.285714285714
      0.000000000000      0.222222222222     -0.285714285714
      0.111111111111      0.222222222222     -0.285714285714
      0.222222222222      0.222222222222     -0.285714285714
      0.333333333333      0.222222222222     -0.285714285714
      0.444444444444      0.222222222222     -0.285714285714
     -0.444444444444      0.222222222222     -0.285714285714
     -0.333333333333      0.222222222222     -0.285714285714
     -0.222222222222      0.222222222222     -0.285714285714
     -0.111111111111      0.222222222222     -0.285714285714
      0.000000000000      0.333333333333     -0.285714285714
      0.111111111111      0.333333333333     -0.285714285714
      0.222222222222      0.333333333333     -0.285714285714
      0.333333333333      0.333333333333     -0.285714285714
      0.444444444444      0.333333333333     -0.285714285714
     -0.444444444444      0.333333333333     -0.285714285714
     -0.333333333333      0.333333333333     -0.285714285714
     -0.222222222222      0.333333333333     -0.285714285714
     -0.111111111111      0.333333333333     -0.285714285714
      0.000000000000      0.444444444444     -0.285714285714
      0.111111111111      0.444444444444     -0.285714285714
      0.222222222222      0.444444444444     -0.285714285714
      0.333333333333      0.444444444444     -0.285714285714
      0.444444444444      0.444444444444     -0.285714285714
     -0.444444444444      0.444444444444     -0.285714285714
     -0.333333333333      0.444444444444     -0.285714285714
     -0.222222222222      0.444444444444     -0.285714285714
     -0.111111111111      0.444444444444     -0.285714285714
      0.000000000000     -0.444444444444     -0.285714285714
      0.111111111111     -0.444444444444     -0.285714285714
      0.222222222222     -0.444444444444     -0.285714285714
      0.333333333333     -0.444444444444     -0.285714285714
      0.444444444444     -0.444444444444     -0.285714285714
     -0.444444444444     -0.444444444444     -0.285714285714
     -0.333333333333     -0.444444444444     -0.285714285714
     -0.222222222222     -0.444444444444     -0.285714285714
     -0.111111111111     -0.444444444444     -0.285714285714
      0.000000000000     -0.333333333333     -0.285714285714
      0.111111111111     -0.333333333333     -0.285714285714
      0.222222222222     -0.333333333333     -0.285714285714
      0.333333333333     -0.333333333333     -0.285714285714
      0.444444444444     -0.333333333333     -0.285714285714
     -0.444444444444     -0.333333333333     -0.285714285714